(set-info :smt-lib-version 2.6)
(set-logic QF_BV)
(set-info :source |
 Patrice Godefroid, SAGE (systematic dynamic test generation)
 For more information: http://research.microsoft.com/en-us/um/people/pg/public_psfiles/ndss2008.pdf
|)
(set-info :category "industrial")
(set-info :status unsat)
(declare-fun T4_28 () (_ BitVec 32))
(declare-fun T4_92 () (_ BitVec 32))
(declare-fun T4_104 () (_ BitVec 32))
(declare-fun T4_16 () (_ BitVec 32))
(declare-fun T4_4 () (_ BitVec 32))
(declare-fun T1_104 () (_ BitVec 8))
(declare-fun T1_105 () (_ BitVec 8))
(declare-fun T1_106 () (_ BitVec 8))
(declare-fun T1_107 () (_ BitVec 8))
(declare-fun T1_92 () (_ BitVec 8))
(declare-fun T1_93 () (_ BitVec 8))
(declare-fun T1_94 () (_ BitVec 8))
(declare-fun T1_95 () (_ BitVec 8))
(declare-fun T1_28 () (_ BitVec 8))
(declare-fun T1_29 () (_ BitVec 8))
(declare-fun T1_30 () (_ BitVec 8))
(declare-fun T1_31 () (_ BitVec 8))
(declare-fun T1_16 () (_ BitVec 8))
(declare-fun T1_17 () (_ BitVec 8))
(declare-fun T1_18 () (_ BitVec 8))
(declare-fun T1_19 () (_ BitVec 8))
(declare-fun T1_4 () (_ BitVec 8))
(declare-fun T1_5 () (_ BitVec 8))
(declare-fun T1_6 () (_ BitVec 8))
(declare-fun T1_7 () (_ BitVec 8))
(assert (let ((?v_4 (bvadd T4_28 (_ bv32 32)))) (let ((?v_70 (bvadd T4_92 ?v_4))) (let ((?v_71 (bvadd ?v_70 (_ bv7 32))) (?v_42 (bvadd ?v_4 (_ bv20 32)))) (let ((?v_69 (bvadd T4_104 ?v_42)) (?v_67 (bvadd T4_16 (_ bv19 32))) (?v_68 (bvsub (_ bv65536 32) ?v_42)) (?v_61 (bvadd T4_28 (_ bv40 32)))) (let ((?v_66 (bvadd T4_92 ?v_61)) (?v_65 (bvsub (_ bv65536 32) ?v_4)) (?v_64 (bvadd ?v_4 (_ bv74 32))) (?v_63 (bvadd T4_28 (_ bv141164648 32))) (?v_62 (bvadd T4_28 (_ bv141164652 32))) (?v_60 (bvsub (_ bv65536 32) (bvadd ?v_4 (_ bv12 32)))) (?v_59 (bvsub (_ bv65536 32) (bvadd ?v_4 (_ bv16 32)))) (?v_58 (bvsub (_ bv65536 32) (bvadd ?v_4 (_ bv24 32)))) (?v_57 (bvsub (_ bv65536 32) (bvadd ?v_4 (_ bv28 32)))) (?v_56 (bvsub (_ bv65536 32) (bvadd ?v_4 (_ bv32 32)))) (?v_55 (bvsub (_ bv65536 32) (bvadd ?v_4 (_ bv34 32)))) (?v_54 (bvsub (_ bv65536 32) (bvadd ?v_4 (_ bv36 32)))) (?v_53 (bvsub (_ bv65536 32) (bvadd ?v_4 (_ bv40 32)))) (?v_52 (bvsub (_ bv65536 32) (bvadd ?v_4 (_ bv44 32)))) (?v_51 (bvsub (_ bv65536 32) (bvadd ?v_4 (_ bv48 32)))) (?v_50 (bvsub (_ bv65536 32) (bvadd ?v_4 (_ bv52 32)))) (?v_49 (bvsub (_ bv65536 32) (bvadd ?v_4 (_ bv56 32)))) (?v_48 (bvsub (_ bv65536 32) (bvadd ?v_4 (_ bv60 32)))) (?v_47 (bvsub (_ bv65536 32) (bvadd ?v_4 (_ bv64 32)))) (?v_46 (bvsub (_ bv65536 32) (bvadd ?v_4 (_ bv68 32)))) (?v_45 (bvsub (_ bv65536 32) (bvadd ?v_4 (_ bv70 32)))) (?v_43 (bvsub (_ bv0 32) ((_ zero_extend 24) (ite (bvult ?v_68 (_ bv0 32)) (_ bv1 8) (_ bv0 8)))))) (let ((?v_44 (bvule ?v_43 (_ bv0 32))) (?v_41 (bvsub (_ bv65536 32) (bvadd T4_28 (_ bv36 32)))) (?v_40 (bvsub (_ bv65536 32) ?v_61)) (?v_39 (bvult (_ bv4 32) T4_4)) (?v_37 (bvsub (_ bv0 32) ((_ zero_extend 24) (ite (bvult ?v_65 (_ bv0 32)) (_ bv1 8) (_ bv0 8)))))) (let ((?v_38 (bvule ?v_37 (_ bv0 32))) (?v_35 (bvsub (_ bv0 32) ((_ zero_extend 24) (ite (bvult ?v_60 (_ bv0 32)) (_ bv1 8) (_ bv0 8)))))) (let ((?v_36 (bvule ?v_35 (_ bv0 32))) (?v_33 (bvsub (_ bv0 32) ((_ zero_extend 24) (ite (bvult ?v_59 (_ bv0 32)) (_ bv1 8) (_ bv0 8)))))) (let ((?v_34 (bvule ?v_33 (_ bv0 32))) (?v_31 (bvsub (_ bv0 32) ((_ zero_extend 24) (ite (bvult ?v_58 (_ bv0 32)) (_ bv1 8) (_ bv0 8)))))) (let ((?v_32 (bvule ?v_31 (_ bv0 32))) (?v_29 (bvsub (_ bv0 32) ((_ zero_extend 24) (ite (bvult ?v_57 (_ bv0 32)) (_ bv1 8) (_ bv0 8)))))) (let ((?v_30 (bvule ?v_29 (_ bv0 32))) (?v_27 (bvsub (_ bv0 32) ((_ zero_extend 24) (ite (bvult ?v_56 (_ bv0 32)) (_ bv1 8) (_ bv0 8)))))) (let ((?v_28 (bvule ?v_27 (_ bv0 32))) (?v_25 (bvsub (_ bv0 32) ((_ zero_extend 24) (ite (bvult ?v_55 (_ bv0 32)) (_ bv1 8) (_ bv0 8)))))) (let ((?v_26 (bvule ?v_25 (_ bv0 32))) (?v_23 (bvsub (_ bv0 32) ((_ zero_extend 24) (ite (bvult ?v_54 (_ bv0 32)) (_ bv1 8) (_ bv0 8)))))) (let ((?v_24 (bvule ?v_23 (_ bv0 32))) (?v_21 (bvsub (_ bv0 32) ((_ zero_extend 24) (ite (bvult ?v_53 (_ bv0 32)) (_ bv1 8) (_ bv0 8)))))) (let ((?v_22 (bvule ?v_21 (_ bv0 32))) (?v_19 (bvsub (_ bv0 32) ((_ zero_extend 24) (ite (bvult ?v_52 (_ bv0 32)) (_ bv1 8) (_ bv0 8)))))) (let ((?v_20 (bvule ?v_19 (_ bv0 32))) (?v_17 (bvsub (_ bv0 32) ((_ zero_extend 24) (ite (bvult ?v_51 (_ bv0 32)) (_ bv1 8) (_ bv0 8)))))) (let ((?v_18 (bvule ?v_17 (_ bv0 32))) (?v_15 (bvsub (_ bv0 32) ((_ zero_extend 24) (ite (bvult ?v_50 (_ bv0 32)) (_ bv1 8) (_ bv0 8)))))) (let ((?v_16 (bvule ?v_15 (_ bv0 32))) (?v_13 (bvsub (_ bv0 32) ((_ zero_extend 24) (ite (bvult ?v_49 (_ bv0 32)) (_ bv1 8) (_ bv0 8)))))) (let ((?v_14 (bvule ?v_13 (_ bv0 32))) (?v_11 (bvsub (_ bv0 32) ((_ zero_extend 24) (ite (bvult ?v_48 (_ bv0 32)) (_ bv1 8) (_ bv0 8)))))) (let ((?v_12 (bvule ?v_11 (_ bv0 32))) (?v_9 (bvsub (_ bv0 32) ((_ zero_extend 24) (ite (bvult ?v_47 (_ bv0 32)) (_ bv1 8) (_ bv0 8)))))) (let ((?v_10 (bvule ?v_9 (_ bv0 32))) (?v_7 (bvsub (_ bv0 32) ((_ zero_extend 24) (ite (bvult ?v_46 (_ bv0 32)) (_ bv1 8) (_ bv0 8)))))) (let ((?v_8 (bvule ?v_7 (_ bv0 32))) (?v_5 (bvsub (_ bv0 32) ((_ zero_extend 24) (ite (bvult ?v_45 (_ bv0 32)) (_ bv1 8) (_ bv0 8)))))) (let ((?v_6 (bvule ?v_5 (_ bv0 32))) (?v_2 (bvsub (_ bv0 32) ((_ zero_extend 24) (ite (bvult ?v_41 (_ bv0 32)) (_ bv1 8) (_ bv0 8)))))) (let ((?v_3 (bvule ?v_2 (_ bv0 32))) (?v_0 (bvsub (_ bv0 32) ((_ zero_extend 24) (ite (bvult ?v_40 (_ bv0 32)) (_ bv1 8) (_ bv0 8)))))) (let ((?v_1 (bvule ?v_0 (_ bv0 32)))) (and true (= T4_4 (bvor (bvshl (bvor (bvshl (bvor (bvshl ((_ zero_extend 24) T1_7) (_ bv8 32)) ((_ zero_extend 24) T1_6)) (_ bv8 32)) ((_ zero_extend 24) T1_5)) (_ bv8 32)) ((_ zero_extend 24) T1_4))) (= T4_16 (bvor (bvshl (bvor (bvshl (bvor (bvshl ((_ zero_extend 24) T1_19) (_ bv8 32)) ((_ zero_extend 24) T1_18)) (_ bv8 32)) ((_ zero_extend 24) T1_17)) (_ bv8 32)) ((_ zero_extend 24) T1_16))) (= T4_28 (bvor (bvshl (bvor (bvshl (bvor (bvshl ((_ zero_extend 24) T1_31) (_ bv8 32)) ((_ zero_extend 24) T1_30)) (_ bv8 32)) ((_ zero_extend 24) T1_29)) (_ bv8 32)) ((_ zero_extend 24) T1_28))) (= T4_92 (bvor (bvshl (bvor (bvshl (bvor (bvshl ((_ zero_extend 24) T1_95) (_ bv8 32)) ((_ zero_extend 24) T1_94)) (_ bv8 32)) ((_ zero_extend 24) T1_93)) (_ bv8 32)) ((_ zero_extend 24) T1_92))) (= T4_104 (bvor (bvshl (bvor (bvshl (bvor (bvshl ((_ zero_extend 24) T1_107) (_ bv8 32)) ((_ zero_extend 24) T1_106)) (_ bv8 32)) ((_ zero_extend 24) T1_105)) (_ bv8 32)) ((_ zero_extend 24) T1_104))) (bvult ?v_69 (_ bv0 32)) ?v_1 (bvule (_ bv0 32) ?v_0) ?v_1 ?v_3 (bvule (_ bv0 32) ?v_2) ?v_3 ?v_6 (bvule (_ bv0 32) ?v_5) ?v_6 ?v_8 (bvule (_ bv0 32) ?v_7) ?v_8 ?v_10 (bvule (_ bv0 32) ?v_9) ?v_10 ?v_12 (bvule (_ bv0 32) ?v_11) ?v_12 ?v_14 (bvule (_ bv0 32) ?v_13) ?v_14 ?v_16 (bvule (_ bv0 32) ?v_15) ?v_16 ?v_18 (bvule (_ bv0 32) ?v_17) ?v_18 ?v_20 (bvule (_ bv0 32) ?v_19) ?v_20 ?v_22 (bvule (_ bv0 32) ?v_21) ?v_22 ?v_24 (bvule (_ bv0 32) ?v_23) ?v_24 ?v_26 (bvule (_ bv0 32) ?v_25) ?v_26 ?v_28 (bvule (_ bv0 32) ?v_27) ?v_28 ?v_30 (bvule (_ bv0 32) ?v_29) ?v_30 ?v_32 (bvule (_ bv0 32) ?v_31) ?v_32 ?v_34 (bvule (_ bv0 32) ?v_33) ?v_34 ?v_36 (bvule (_ bv0 32) ?v_35) ?v_36 (bvule (bvadd T4_4 (_ bv8 32)) (_ bv573440 32)) (bvult (_ bv1 32) (bvsub (_ bv4294967295 32) ((_ zero_extend 24) (ite (bvult (bvsub (_ bv4294967295 32) ?v_4) (_ bv0 32)) (_ bv1 8) (_ bv0 8))))) ?v_38 (bvule (_ bv0 32) ?v_37) ?v_38 ?v_39 (not (= T4_4 (_ bv0 32))) ?v_39 (bvule (bvadd T4_16 (_ bv20 32)) (_ bv573440 32)) (bvult (_ bv4 32) ?v_40) (bvule (_ bv4 32) ?v_40) (not (= ?v_40 (_ bv0 32))) (bvult ?v_40 (_ bv200000000 32)) (bvult (_ bv4 32) ?v_41) (bvule (_ bv4 32) ?v_41) (not (= ?v_41 (_ bv0 32))) (bvult ?v_41 (_ bv200000000 32)) ?v_44 (bvule (_ bv0 32) ?v_43) ?v_44 (bvult (_ bv2 32) ?v_45) (bvule (_ bv2 32) ?v_45) (not (= ?v_45 (_ bv0 32))) (bvult ?v_45 (_ bv200000000 32)) (bvult (_ bv2 32) ?v_46) (bvule (_ bv2 32) ?v_46) (not (= ?v_46 (_ bv0 32))) (bvult ?v_46 (_ bv200000000 32)) (bvult (_ bv4 32) ?v_47) (bvule (_ bv4 32) ?v_47) (not (= ?v_47 (_ bv0 32))) (bvult ?v_47 (_ bv200000000 32)) (bvult (_ bv4 32) ?v_48) (bvule (_ bv4 32) ?v_48) (not (= ?v_48 (_ bv0 32))) (bvult ?v_48 (_ bv200000000 32)) (bvult (_ bv4 32) ?v_49) (bvule (_ bv4 32) ?v_49) (not (= ?v_49 (_ bv0 32))) (bvult ?v_49 (_ bv200000000 32)) (bvult (_ bv4 32) ?v_50) (bvule (_ bv4 32) ?v_50) (not (= ?v_50 (_ bv0 32))) (bvult ?v_50 (_ bv200000000 32)) (bvult (_ bv4 32) ?v_51) (bvule (_ bv4 32) ?v_51) (not (= ?v_51 (_ bv0 32))) (bvult ?v_51 (_ bv200000000 32)) (bvult (_ bv4 32) ?v_52) (bvule (_ bv4 32) ?v_52) (not (= ?v_52 (_ bv0 32))) (bvult ?v_52 (_ bv200000000 32)) (bvult (_ bv4 32) ?v_53) (bvule (_ bv4 32) ?v_53) (not (= ?v_53 (_ bv0 32))) (bvult ?v_53 (_ bv200000000 32)) (bvult (_ bv4 32) ?v_54) (bvule (_ bv4 32) ?v_54) (not (= ?v_54 (_ bv0 32))) (bvult ?v_54 (_ bv200000000 32)) (bvult (_ bv2 32) ?v_55) (bvule (_ bv2 32) ?v_55) (not (= ?v_55 (_ bv0 32))) (bvult ?v_55 (_ bv200000000 32)) (bvult (_ bv2 32) ?v_56) (bvule (_ bv2 32) ?v_56) (not (= ?v_56 (_ bv0 32))) (bvult ?v_56 (_ bv200000000 32)) (bvult (_ bv4 32) ?v_57) (bvule (_ bv4 32) ?v_57) (not (= ?v_57 (_ bv0 32))) (bvult ?v_57 (_ bv200000000 32)) (bvult (_ bv4 32) ?v_58) (bvule (_ bv4 32) ?v_58) (not (= ?v_58 (_ bv0 32))) (bvult ?v_58 (_ bv200000000 32)) (bvult (_ bv4 32) ?v_59) (bvule (_ bv4 32) ?v_59) (not (= ?v_59 (_ bv0 32))) (bvult ?v_59 (_ bv200000000 32)) (bvult (_ bv4 32) ?v_60) (bvule (_ bv4 32) ?v_60) (not (= ?v_60 (_ bv0 32))) (bvult ?v_60 (_ bv200000000 32)) (bvult (_ bv4 32) T4_16) (bvule T4_16 (_ bv65516 32)) (not (= T4_16 (_ bv0 32))) (bvule (_ bv139327844 32) (bvadd T4_28 (_ bv141164656 32))) (bvule ?v_61 (_ bv65536 32)) (bvult ?v_61 (_ bv65536 32)) (bvule (_ bv139327764 32) ?v_62) (bvule (_ bv139327852 32) ?v_62) (bvule (_ bv139327792 32) ?v_63) (bvule (_ bv139327880 32) ?v_63) (bvule (bvadd ?v_70 (_ bv8 32)) (_ bv573440 32)) (bvule ?v_64 (_ bv65536 32)) (bvult ?v_64 (_ bv65536 32)) (bvule (_ bv139327792 32) (bvadd ?v_4 (_ bv141164684 32))) (bvule (_ bv139327796 32) (bvadd ?v_4 (_ bv141164644 32))) (bvule (_ bv4817124 32) (bvadd ?v_4 (_ bv141164640 32))) (bvule (_ bv139327932 32) (bvadd ?v_4 (_ bv141164636 32))) (bvule (_ bv139327724 32) (bvadd ?v_4 (_ bv141164632 32))) (bvule (_ bv139327752 32) (bvadd ?v_4 (_ bv141164628 32))) (bvult (_ bv4 32) T4_92) (not (= T4_92 (_ bv0 32))) (bvult (_ bv4 32) ?v_65) (bvule (_ bv4 32) ?v_65) (not (= ?v_65 (_ bv0 32))) (bvult ?v_65 (_ bv200000000 32)) (bvult ?v_67 ?v_66) (bvule (bvadd ?v_66 (_ bv4294967295 32)) ?v_67) (bvule (bvadd T4_28 (_ bv31 32)) ?v_67) (bvule ?v_67 (bvadd T4_4 (_ bv7 32))) (= T4_28 (_ bv56 32)) (not (= T4_28 (_ bv0 32))) (bvult (_ bv4 32) ?v_68) (bvule (_ bv4 32) ?v_68) (not (= ?v_68 (_ bv0 32))) (bvult ?v_68 (_ bv200000000 32)) (bvult ?v_4 (_ bv65536 32)) (bvult (_ bv0 32) ?v_4) (bvule (_ bv0 32) ?v_4) (bvule ?v_4 ?v_67) (bvule (bvadd ?v_69 (_ bv4294967295 32)) ?v_71) (= T4_104 (_ bv56 32)) (not (= T4_104 (_ bv0 32))) (bvule ?v_69 ?v_71))))))))))))))))))))))))))))
(check-sat)
(exit)
